NAME : 31C3k.0.3553142.tour
COMMENT : Length = 3553142
COMMENT : Found by LKH [Keld Helsgaun] Sat Jun 22 19:05:57 2013
TYPE : TOUR
DIMENSION : 31
TOUR_SECTION
6
457
159
1960
436
643
1620
763
1525
1523
3057
237
1906
1002
1331
2794
2130
2595
743
207
2859
2147
2248
806
1699
666
1252
2618
509
276
1213
-1
EOF
